
Gurobi 10.0.1 (linux64) logging started Sun Nov 26 15:45:36 2023

Set parameter LogFile to value "ArtificialInstance/ExperimentV2/S3T4K2/AdRo/gurobiSpRo27.txt"
Gurobi Optimizer version 10.0.1 build v10.0.1rc0 (linux64)

CPU model: AMD EPYC 7H12 64-Core Processor, instruction set [SSE2|AVX|AVX2]
Thread count: 128 physical cores, 128 logical processors, using up to 32 threads

Academic license 656792 - for non-commercial use only - registered to b.___@student.vu.nl
Optimize a model with 9083 rows, 8653 columns and 33553 nonzeros
Model fingerprint: 0x9b684825
Variable types: 1 continuous, 8652 integer (8652 binary)
Coefficient statistics:
  Matrix range     [1e+00, 4e+01]
  Objective range  [1e+00, 2e+01]
  Bounds range     [1e+00, 1e+00]
  RHS range        [1e+00, 1e+00]
Presolve removed 3705 rows and 3436 columns
Presolve time: 0.11s
Presolved: 5378 rows, 5217 columns, 20326 nonzeros
Variable types: 1 continuous, 5216 integer (5216 binary)

Root relaxation: objective 7.993820e+01, 1417 iterations, 0.04 seconds (0.03 work units)

    Nodes    |    Current Node    |     Objective Bounds      |     Work
 Expl Unexpl |  Obj  Depth IntInf | Incumbent    BestBd   Gap | It/Node Time

H    0     0                      79.9382001   57.11250  28.6%     -    0s
     0     0          -    0        79.93820   79.93820  0.00%     -    0s

Explored 1 nodes (2178 simplex iterations) in 0.23 seconds (0.16 work units)
Thread count was 32 (of 128 available processors)

Solution count 1: 79.9382 

Optimal solution found (tolerance 1.00e-04)
Best objective 7.993820005440e+01, best bound 7.993820005440e+01, gap 0.0000%
